(set-logic QF_S)
(declare-fun var0 () String)
(declare-fun var1 () String)
(declare-fun var2 () String)
(declare-fun var3 () String)
(declare-fun var4 () String)
(declare-fun var5 () String)
(declare-fun var6 () String)
(declare-fun var7 () String)
(declare-fun var8 () String)
(declare-fun var9 () String)
(declare-fun var10 () String)
(declare-fun var11 () String)
(declare-fun var12 () String)
(declare-fun var13 () String)
(declare-fun var14 () String)
(declare-fun var15 () String)
(declare-fun var16 () String)
(declare-fun var17 () String)
(declare-fun var18 () String)
(declare-fun var19 () String)
(declare-fun var20 () String)
(declare-fun var21 () String)
(declare-fun var22 () String)
(declare-fun var23 () String)
(declare-fun var24 () String)
(declare-fun var25 () String)
(declare-fun var26 () String)
(declare-fun var27 () String)
(declare-fun var28 () String)
(declare-fun var29 () String)
(declare-fun var30 () String)
(declare-fun var31 () String)
(declare-fun var32 () String)
(declare-fun var33 () String)
(declare-fun var34 () String)
(declare-fun var35 () String)
(declare-fun var36 () String)
(declare-fun var37 () String)
(declare-fun var38 () String)
(declare-fun var39 () String)
(declare-fun var40 () String)
(declare-fun var41 () String)
(declare-fun var42 () String)
(declare-fun var43 () String)
(declare-fun var44 () String)
(declare-fun var45 () String)
(declare-fun var46 () String)
(declare-fun var47 () String)
(declare-fun var48 () String)
(declare-fun var49 () String)
(declare-fun var50 () String)
(declare-fun var51 () String)
(declare-fun var52 () String)
(declare-fun var53 () String)
(declare-fun var54 () String)
(declare-fun var55 () String)
(declare-fun var56 () String)
(declare-fun var57 () String)
(declare-fun var58 () String)
(declare-fun var59 () String)
(declare-fun var60 () String)
(assert (= var0 (str.++ var1 var2)))
(assert (= var2 (str.++ var3 var4)))
(assert (= var4 (str.++ var5 var6)))
(assert (= var6 (str.++ var7 var8)))
(assert (= var8 (str.++ var9 var10)))
(assert (= var10 (str.++ var11 var12)))
(assert (= var12 (str.++ var13 var14)))
(assert (= var14 (str.++ var15 var16)))
(assert (= var16 (str.++ var17 var18)))
(assert (= var18 (str.++ var19 var20)))
(assert (= var20 (str.++ var21 var22)))
(assert (= var22 (str.++ var23 var24)))
(assert (= var24 (str.++ var25 var26)))
(assert (= var26 (str.++ var27 var28)))
(assert (= var28 (str.++ var29 var30)))
(assert (= var30 (str.++ var31 var32)))
(assert (= var32 (str.++ var33 var34)))
(assert (= var34 (str.++ var35 var36)))
(assert (= var36 (str.++ var37 var38)))
(assert (= var38 (str.++ var39 var40)))
(assert (= var40 (str.++ var41 var42)))
(assert (= var42 (str.++ var43 var44)))
(assert (= var44 (str.++ var45 var46)))
(assert (= var46 (str.++ var47 var48)))
(assert (= var48 (str.++ var49 var50)))
(assert (= var50 (str.++ var51 var52)))
(assert (= var52 (str.++ var53 var54)))
(assert (= var54 (str.++ var55 var56)))
(assert (= var56 (str.++ var57 var58)))
(assert (= var58 (str.++ var59 var60)))
(assert (= var0 "solution"))
(assert (= "]" (str.at var1 229)))
(assert (= "." (str.at var3 5)))
(assert (= "*" (str.at var26 975)))
(assert (= "y" (str.at var25 726)))
(assert (= "b" (str.at var47 387)))
(assert (= "x" (str.at var52 90)))
(assert (= "W" (str.at var28 759)))
(assert (= "," (str.at var27 522)))
(assert (= "V" (str.at var36 27)))
(assert (= "%" (str.at var29 576)))
(assert (= "H" (str.at var57 532)))
(assert (= "3" (str.at var60 820)))
(assert (= "e" (str.at var20 127)))
(assert (= "{" (str.at var6 688)))
(assert (= ";" (str.at var47 73)))
(assert (= "2" (str.at var4 70)))
(assert (= "i" (str.at var30 496)))
(assert (= "2" (str.at var47 895)))
(assert (= ">" (str.at var53 666)))
(assert (= "o" (str.at var9 649)))
(assert (= "c" (str.at var13 10)))
(assert (= "}" (str.at var9 8)))
(assert (= "3" (str.at var30 234)))
(assert (= "K" (str.at var49 820)))
(assert (= "q" (str.at var22 242)))
(assert (= "'" (str.at var29 670)))
(assert (= "B" (str.at var33 784)))
(assert (= "[" (str.at var18 127)))
(assert (= "1" (str.at var38 114)))
(assert (= "r" (str.at var27 532)))
(assert (= "%" (str.at var47 240)))
(assert (= "u" (str.at var49 911)))
(assert (= "0" (str.at var58 665)))
(assert (= ";" (str.at var58 223)))
(assert (= "G" (str.at var49 415)))
(assert (= "7" (str.at var3 404)))
(assert (= "y" (str.at var42 891)))
(assert (= "D" (str.at var19 690)))
(assert (= "I" (str.at var22 183)))
(assert (= "1" (str.at var48 325)))
(assert (= ";" (str.at var56 246)))
(assert (= "D" (str.at var30 686)))
(assert (= "E" (str.at var30 742)))
(assert (= "D" (str.at var54 705)))
(assert (= "{" (str.at var30 516)))
(assert (= "," (str.at var12 29)))
(assert (= "x" (str.at var58 648)))
(assert (= "$" (str.at var50 195)))
(assert (= "&" (str.at var4 184)))
(assert (= ">" (str.at var38 600)))
(assert (= "}" (str.at var60 762)))
(assert (= "'" (str.at var31 456)))
(assert (= "$" (str.at var19 852)))
(assert (= "g" (str.at var16 524)))
(assert (= "^" (str.at var39 20)))
(assert (= "y" (str.at var35 730)))
(assert (= "p" (str.at var36 256)))
(assert (= "V" (str.at var32 801)))
(assert (= "`" (str.at var14 381)))
(assert (= "w" (str.at var37 378)))
(assert (= "D" (str.at var20 486)))
(assert (= "4" (str.at var45 460)))
(assert (= "l" (str.at var1 813)))
(assert (= "P" (str.at var21 752)))
(assert (= "3" (str.at var22 616)))
(assert (= "/" (str.at var60 878)))
(assert (= "K" (str.at var13 207)))
(assert (= "B" (str.at var17 854)))
(assert (= "+" (str.at var14 505)))
(assert (= ":" (str.at var13 497)))
(assert (= "T" (str.at var36 457)))
(assert (= "K" (str.at var32 803)))
(assert (= "0" (str.at var36 747)))
(assert (= "T" (str.at var23 902)))
(assert (= "S" (str.at var50 290)))
(assert (= "b" (str.at var54 547)))
(assert (= "p" (str.at var6 732)))
(assert (= "/" (str.at var9 797)))
(assert (= "." (str.at var40 331)))
(assert (= "L" (str.at var13 775)))
(assert (= "l" (str.at var41 487)))
(assert (= "s" (str.at var45 854)))
(assert (= "x" (str.at var23 976)))
(assert (= "+" (str.at var33 356)))
(assert (= "M" (str.at var54 273)))
(assert (= "Q" (str.at var22 796)))
(assert (= "C" (str.at var18 611)))
(assert (= "Q" (str.at var33 185)))
(assert (= "b" (str.at var42 190)))
(assert (= "O" (str.at var45 983)))
(assert (= "e" (str.at var56 658)))
(assert (= ":" (str.at var38 382)))
(assert (= "j" (str.at var2 430)))
(assert (= "z" (str.at var32 165)))
(assert (= "%" (str.at var13 302)))
(assert (= "K" (str.at var41 35)))
(assert (= "." (str.at var40 364)))
(assert (= "5" (str.at var22 190)))
(assert (= "H" (str.at var20 210)))
(assert (= "Q" (str.at var47 676)))
(assert (= "j" (str.at var52 290)))
(assert (= "D" (str.at var29 574)))
(assert (= "H" (str.at var55 432)))
(assert (= "C" (str.at var41 74)))
(assert (= "y" (str.at var51 670)))
(assert (= "m" (str.at var30 848)))
(assert (= "S" (str.at var19 472)))
(assert (= "`" (str.at var39 620)))
(assert (= "d" (str.at var51 994)))
(assert (= "M" (str.at var50 522)))
(assert (= "l" (str.at var4 211)))
(assert (= "u" (str.at var31 114)))
(assert (= "v" (str.at var41 580)))
(assert (= "o" (str.at var49 100)))
(assert (= "x" (str.at var26 56)))
(assert (= "*" (str.at var6 156)))
(assert (= "@" (str.at var60 828)))
(assert (= "m" (str.at var22 645)))
(assert (= "S" (str.at var60 188)))
(assert (= "v" (str.at var7 400)))
(assert (= "Y" (str.at var37 574)))
(assert (= "E" (str.at var13 532)))
(assert (= "r" (str.at var7 498)))
(assert (= "6" (str.at var27 439)))
(assert (= "I" (str.at var18 727)))
(assert (= "1" (str.at var47 48)))
(assert (= "o" (str.at var2 462)))
(assert (= ")" (str.at var55 504)))
(assert (= "S" (str.at var31 393)))
(assert (= "z" (str.at var45 29)))
(assert (= "E" (str.at var12 657)))
(assert (= "." (str.at var18 944)))
(assert (= "j" (str.at var40 71)))
(assert (= "A" (str.at var14 463)))
(assert (= "," (str.at var50 523)))
(assert (= "m" (str.at var23 749)))
(assert (= "j" (str.at var10 185)))
(assert (= "U" (str.at var49 63)))
(assert (= "K" (str.at var41 109)))
(assert (= "t" (str.at var16 682)))
(assert (= "=" (str.at var16 3)))
(assert (= "1" (str.at var11 814)))
(assert (= "+" (str.at var46 859)))
(assert (= "g" (str.at var45 404)))
(assert (= "O" (str.at var18 420)))
(assert (= "j" (str.at var11 77)))
(assert (= "2" (str.at var8 743)))
(assert (= "w" (str.at var36 91)))
(assert (= "{" (str.at var3 848)))
(assert (= "U" (str.at var32 908)))
(assert (= "L" (str.at var33 111)))
(assert (= "@" (str.at var33 804)))
(assert (= "s" (str.at var19 473)))
(assert (= ":" (str.at var11 385)))
(assert (= "n" (str.at var52 134)))
(assert (= "%" (str.at var29 919)))
(assert (= "-" (str.at var5 788)))
(assert (= "w" (str.at var22 959)))
(assert (= "b" (str.at var35 821)))
(assert (= "K" (str.at var19 111)))
(assert (= "H" (str.at var36 472)))
(assert (= "#" (str.at var6 314)))
(assert (= "\\" (str.at var50 156)))
(assert (= "q" (str.at var55 984)))
(assert (= "\\" (str.at var12 413)))
(assert (= "J" (str.at var52 787)))
(assert (= "h" (str.at var22 259)))
(assert (= "u" (str.at var8 487)))
(assert (= "z" (str.at var26 680)))
(assert (= "J" (str.at var38 471)))
(assert (= "h" (str.at var50 967)))
(assert (= "e" (str.at var26 582)))
(assert (= "X" (str.at var28 431)))
(assert (= "/" (str.at var56 101)))
(assert (= "1" (str.at var57 356)))
(assert (= "a" (str.at var28 73)))
(assert (= "|" (str.at var29 901)))
(assert (= "$" (str.at var7 271)))
(assert (= "i" (str.at var16 785)))
(assert (= "w" (str.at var38 495)))
(assert (= "O" (str.at var36 691)))
(assert (= "p" (str.at var54 528)))
(assert (= "T" (str.at var16 825)))
(assert (= "2" (str.at var55 326)))
(assert (= "3" (str.at var55 255)))
(assert (= "(" (str.at var8 553)))
(assert (= "8" (str.at var36 371)))
(assert (= "9" (str.at var36 417)))
(assert (= "v" (str.at var18 822)))
(assert (= "o" (str.at var58 605)))
(assert (= "G" (str.at var49 22)))
(assert (= "=" (str.at var39 389)))
(assert (= "7" (str.at var54 319)))
(assert (= "+" (str.at var50 983)))
(assert (= "-" (str.at var59 87)))
(assert (= "q" (str.at var7 415)))
(assert (= "q" (str.at var59 770)))
(assert (= "R" (str.at var59 714)))
(assert (= "]" (str.at var35 967)))
(assert (= "z" (str.at var4 481)))
(assert (= "J" (str.at var24 454)))
(assert (= "5" (str.at var42 160)))
(assert (= "_" (str.at var38 738)))
(assert (= "B" (str.at var37 515)))
(assert (= "x" (str.at var21 411)))
(assert (= "C" (str.at var38 209)))
(assert (= "W" (str.at var57 962)))
(assert (= "L" (str.at var44 32)))
(assert (= "H" (str.at var27 438)))
(assert (= "N" (str.at var59 875)))
(assert (= "i" (str.at var33 69)))
(assert (= "r" (str.at var60 135)))
(assert (= "x" (str.at var27 711)))
(assert (= "C" (str.at var0 330)))
(assert (= "[" (str.at var34 450)))
(assert (= """" (str.at var19 572)))
(assert (= "L" (str.at var11 806)))
(assert (= "Q" (str.at var16 835)))
(assert (= "~" (str.at var5 619)))
(assert (= "d" (str.at var47 43)))
(assert (= "c" (str.at var50 351)))
(assert (= "a" (str.at var19 578)))
(assert (= "5" (str.at var35 836)))
(assert (= "F" (str.at var28 968)))
(assert (= "A" (str.at var5 834)))
(assert (= ":" (str.at var1 879)))
(assert (= "O" (str.at var54 849)))
(assert (= "/" (str.at var17 228)))
(assert (= ")" (str.at var50 703)))
(assert (= "#" (str.at var45 767)))
(assert (= "N" (str.at var39 62)))
(assert (= "-" (str.at var51 115)))
(assert (= ")" (str.at var15 343)))
(assert (= "-" (str.at var44 143)))
(assert (= "I" (str.at var43 566)))
(assert (= "@" (str.at var58 720)))
(assert (= "G" (str.at var33 381)))
(assert (= "Q" (str.at var53 939)))
(assert (= "m" (str.at var58 112)))
(assert (= "a" (str.at var38 439)))
(assert (= "T" (str.at var7 998)))
(assert (= """" (str.at var16 367)))
(assert (= "|" (str.at var5 962)))
(assert (= "\\" (str.at var21 905)))
(assert (= "!" (str.at var44 672)))
(assert (= "X" (str.at var31 414)))
(assert (= "&" (str.at var28 26)))
(assert (= "e" (str.at var34 544)))
(assert (= "+" (str.at var3 46)))
(assert (= ")" (str.at var16 770)))
(assert (= "P" (str.at var38 952)))
(assert (= "A" (str.at var19 779)))
(assert (= "}" (str.at var5 582)))
(assert (= "x" (str.at var1 198)))
(assert (= "R" (str.at var31 530)))
(assert (= ")" (str.at var35 996)))
(assert (= "(" (str.at var16 134)))
(assert (= "`" (str.at var11 401)))
(assert (= "[" (str.at var3 32)))
(assert (= "%" (str.at var58 309)))
(assert (= "-" (str.at var47 256)))
(assert (= "0" (str.at var35 447)))
(assert (= "Z" (str.at var54 884)))
(assert (= "2" (str.at var1 207)))
(assert (= "r" (str.at var36 382)))
(assert (= "S" (str.at var5 784)))
(assert (= "W" (str.at var18 900)))
(assert (= "h" (str.at var2 757)))
(assert (= "B" (str.at var52 221)))
(assert (= "F" (str.at var1 103)))
(assert (= "5" (str.at var35 725)))
(assert (= "b" (str.at var53 74)))
(assert (= "f" (str.at var17 50)))
(assert (= "7" (str.at var42 828)))
(assert (= "A" (str.at var54 941)))
(assert (= "k" (str.at var11 394)))
(assert (= "{" (str.at var45 562)))
(assert (= ":" (str.at var48 381)))
(assert (= "^" (str.at var49 553)))
(assert (= "?" (str.at var8 127)))
(assert (= "u" (str.at var47 417)))
(assert (= "C" (str.at var25 97)))
(assert (= "-" (str.at var21 400)))
(assert (= "{" (str.at var30 260)))
(assert (= "[" (str.at var39 758)))
(assert (= "/" (str.at var18 634)))
(assert (= "@" (str.at var54 925)))
(assert (= "." (str.at var10 476)))
(assert (= "N" (str.at var19 126)))
(assert (= "s" (str.at var42 889)))
(assert (= "{" (str.at var22 179)))
(assert (= """" (str.at var11 208)))
(assert (= "T" (str.at var48 877)))
(assert (= "?" (str.at var6 428)))
(assert (= "B" (str.at var8 663)))
(assert (= "X" (str.at var2 510)))
(assert (= "i" (str.at var52 800)))
(assert (= "e" (str.at var60 710)))
(assert (= "-" (str.at var40 939)))
(assert (= ">" (str.at var5 384)))
(assert (= "(" (str.at var57 660)))
(assert (= "s" (str.at var29 391)))
(assert (= "C" (str.at var25 328)))
(assert (= "S" (str.at var10 329)))
(assert (= "3" (str.at var60 175)))
(assert (= "`" (str.at var26 571)))
(assert (= """" (str.at var39 266)))
(assert (= ">" (str.at var8 693)))
(assert (= "p" (str.at var13 465)))
(assert (= "9" (str.at var8 681)))
(assert (= "/" (str.at var17 423)))
(assert (= "2" (str.at var40 431)))
(assert (= "P" (str.at var0 436)))
(assert (= "R" (str.at var4 963)))
(assert (= "(" (str.at var56 76)))
(assert (= "P" (str.at var19 513)))
(assert (= "[" (str.at var10 591)))
(assert (= "K" (str.at var32 348)))
(assert (= "x" (str.at var34 789)))
(assert (= "f" (str.at var18 819)))
(assert (= "e" (str.at var33 160)))
(assert (= "p" (str.at var24 603)))
(assert (= "r" (str.at var11 253)))
(assert (= "P" (str.at var5 213)))
(assert (= "w" (str.at var31 495)))
(assert (= "|" (str.at var4 500)))
(assert (= "a" (str.at var28 442)))
(assert (= "]" (str.at var17 665)))
(assert (= "4" (str.at var1 993)))
(assert (= "1" (str.at var12 160)))
(assert (= "@" (str.at var34 70)))
(assert (= "x" (str.at var32 135)))
(assert (= "j" (str.at var0 240)))
(assert (= "v" (str.at var13 431)))
(assert (= "O" (str.at var6 553)))
(assert (= "'" (str.at var42 721)))
(assert (= "Y" (str.at var49 652)))
(assert (= "1" (str.at var45 131)))
(assert (= "~" (str.at var36 640)))
(assert (= "/" (str.at var10 526)))
(assert (= "Q" (str.at var49 464)))
(assert (= "(" (str.at var37 610)))
(assert (= "G" (str.at var41 822)))
(assert (= "z" (str.at var0 48)))
(assert (= "4" (str.at var17 603)))
(assert (= "F" (str.at var18 972)))
(assert (= "6" (str.at var59 760)))
(assert (= "k" (str.at var6 760)))
(assert (= "'" (str.at var7 76)))
(assert (= "}" (str.at var38 308)))
(assert (= "." (str.at var17 97)))
(assert (= "v" (str.at var56 411)))
(assert (= "Q" (str.at var39 50)))
(assert (= "m" (str.at var40 776)))
(assert (= "@" (str.at var42 110)))
(assert (= "`" (str.at var8 760)))
(assert (= "7" (str.at var44 418)))
(assert (= "*" (str.at var13 131)))
(assert (= "w" (str.at var56 891)))
(assert (= "+" (str.at var41 954)))
(assert (= "\\" (str.at var37 874)))
(assert (= "D" (str.at var46 75)))
(assert (= "3" (str.at var44 810)))
(assert (= "}" (str.at var27 954)))
(assert (= "}" (str.at var49 973)))
(assert (= "3" (str.at var35 855)))
(assert (= "+" (str.at var31 591)))
(assert (= "5" (str.at var13 609)))
(assert (= "E" (str.at var60 160)))
(assert (= "m" (str.at var58 886)))
(assert (= "u" (str.at var18 265)))
(assert (= "j" (str.at var54 688)))
(assert (= "," (str.at var30 386)))
(assert (= "#" (str.at var21 275)))
(assert (= """" (str.at var60 492)))
(assert (= "S" (str.at var44 524)))
(assert (= "|" (str.at var49 304)))
(assert (= "`" (str.at var5 500)))
(assert (= "z" (str.at var55 136)))
(assert (= ";" (str.at var13 163)))
(assert (= "b" (str.at var52 951)))
(assert (= "6" (str.at var12 458)))
(assert (= "4" (str.at var16 221)))
(assert (= "i" (str.at var30 458)))
(assert (= "x" (str.at var22 843)))
(assert (= "R" (str.at var27 58)))
(assert (= "q" (str.at var36 878)))
(assert (= "e" (str.at var9 313)))
(assert (= "k" (str.at var29 222)))
(assert (= "h" (str.at var44 544)))
(assert (= "6" (str.at var23 555)))
(assert (= "." (str.at var23 897)))
(assert (= "w" (str.at var57 229)))
(assert (= "6" (str.at var4 980)))
(assert (= "S" (str.at var52 225)))
(assert (= "-" (str.at var26 661)))
(assert (= "?" (str.at var33 676)))
(assert (= "\\" (str.at var51 832)))
(assert (= "d" (str.at var21 729)))
(assert (= "z" (str.at var29 898)))
(assert (= "<" (str.at var28 265)))
(assert (= "f" (str.at var34 113)))
(assert (= "l" (str.at var53 695)))
(assert (= "." (str.at var10 169)))
(assert (= "d" (str.at var59 860)))
(assert (= "@" (str.at var53 155)))
(assert (= "i" (str.at var32 267)))
(assert (= ")" (str.at var60 359)))
(assert (= "B" (str.at var51 788)))
(assert (= "=" (str.at var59 154)))
(assert (= "j" (str.at var32 343)))
(assert (= "^" (str.at var45 771)))
(assert (= "t" (str.at var28 850)))
(assert (= "Z" (str.at var26 504)))
(assert (= "u" (str.at var17 814)))
(assert (= "E" (str.at var3 867)))
(assert (= "W" (str.at var46 509)))
(assert (= "k" (str.at var29 957)))
(assert (= "i" (str.at var32 477)))
(assert (= "8" (str.at var34 714)))
(assert (= "+" (str.at var41 431)))
(assert (= "z" (str.at var58 40)))
(assert (= "n" (str.at var11 695)))
(assert (= "0" (str.at var43 26)))
(assert (= "0" (str.at var27 45)))
(assert (= "z" (str.at var27 735)))
(assert (= "F" (str.at var3 454)))
(assert (= "2" (str.at var44 219)))
(assert (= "\\" (str.at var23 663)))
(assert (= "a" (str.at var35 6)))
(assert (= ":" (str.at var4 287)))
(assert (= "=" (str.at var13 752)))
(assert (= "," (str.at var53 974)))
(assert (= ">" (str.at var23 721)))
(assert (= "e" (str.at var47 744)))
(assert (= "e" (str.at var8 689)))
(assert (= "}" (str.at var32 371)))
(assert (= "C" (str.at var55 714)))
(assert (= "x" (str.at var38 795)))
(assert (= "h" (str.at var44 780)))
(assert (= "6" (str.at var56 499)))
(assert (= "N" (str.at var10 252)))
(assert (= "d" (str.at var29 126)))
(assert (= "m" (str.at var55 725)))
(assert (= "l" (str.at var0 748)))
(assert (= "]" (str.at var58 298)))
(assert (= "D" (str.at var42 500)))
(assert (= "C" (str.at var3 309)))
(assert (= "T" (str.at var13 671)))
(assert (= "." (str.at var50 992)))
(assert (= "J" (str.at var40 582)))
(assert (= ":" (str.at var25 898)))
(assert (= "h" (str.at var46 280)))
(assert (= "R" (str.at var44 778)))
(assert (= ">" (str.at var46 415)))
(assert (= "." (str.at var19 396)))
(assert (= ";" (str.at var20 256)))
(assert (= "y" (str.at var9 1000)))
(assert (= "x" (str.at var42 57)))
(assert (= "\\" (str.at var59 845)))
(assert (= "-" (str.at var44 158)))
(assert (= "-" (str.at var34 443)))
(assert (= "O" (str.at var59 115)))
(assert (= "Z" (str.at var47 521)))
(assert (= "t" (str.at var2 331)))
(assert (= "r" (str.at var50 443)))
(assert (= "'" (str.at var28 707)))
(assert (= "T" (str.at var15 201)))
(assert (= "*" (str.at var17 827)))
(assert (= "D" (str.at var30 136)))
(assert (= "H" (str.at var17 186)))
(assert (= "z" (str.at var16 70)))
(assert (= "/" (str.at var3 210)))
(assert (= "q" (str.at var21 947)))
(assert (= "k" (str.at var25 277)))
(assert (= "B" (str.at var13 635)))
(assert (= "L" (str.at var20 495)))
(assert (= "v" (str.at var16 698)))
(assert (= "9" (str.at var1 225)))
(assert (= "0" (str.at var47 883)))
(assert (= "4" (str.at var56 844)))
(assert (= "j" (str.at var39 428)))
(assert (= "E" (str.at var43 562)))
(assert (= "n" (str.at var16 737)))
(assert (= "'" (str.at var0 715)))
(assert (= "\\" (str.at var17 23)))
(assert (= "/" (str.at var59 753)))
(assert (= "V" (str.at var45 465)))
(assert (= ";" (str.at var9 716)))
(assert (= "&" (str.at var53 368)))
(assert (= "s" (str.at var28 189)))
(assert (= "o" (str.at var50 221)))
(assert (= "3" (str.at var50 644)))
(assert (= "X" (str.at var28 605)))
(assert (= "0" (str.at var15 92)))
(assert (= "B" (str.at var15 4)))
(assert (= "i" (str.at var47 467)))
(assert (= "P" (str.at var20 870)))
(assert (= "2" (str.at var7 636)))
(assert (= "w" (str.at var6 611)))
(assert (= "b" (str.at var39 895)))
(assert (= "_" (str.at var46 435)))
(assert (= "7" (str.at var29 93)))
(assert (= "N" (str.at var0 84)))
(assert (= "D" (str.at var42 667)))
(assert (= "W" (str.at var1 695)))
(assert (= "{" (str.at var58 331)))
(assert (= "u" (str.at var48 285)))
(assert (= "3" (str.at var49 450)))
(assert (= "1" (str.at var29 860)))
(assert (= "(" (str.at var5 131)))
(assert (= "K" (str.at var34 872)))
(assert (= "P" (str.at var28 866)))
(assert (= "P" (str.at var31 14)))
(assert (= "B" (str.at var9 72)))
(assert (= "8" (str.at var43 791)))
(assert (= "Y" (str.at var57 415)))
(assert (= "`" (str.at var0 416)))
(assert (= "x" (str.at var51 860)))
(assert (= "2" (str.at var4 508)))
(assert (= "J" (str.at var6 860)))
(check-sat)